
Gurobi 11.0.3 (linux64) logging started Tue Oct 15 11:48:05 2024

Set parameter LogFile to value "resources/logs/6_t1_r1_T2.0.log"
Gurobi Optimizer version 11.0.3 build v11.0.3rc0 (linux64 - "Ubuntu 22.04.4 LTS")

CPU model: 12th Gen Intel(R) Core(TM) i9-12900, instruction set [SSE2|AVX|AVX2]
Thread count: 12 physical cores, 24 logical processors, using up to 4 threads

Optimize a model with 5402 rows, 3610 columns and 36855 nonzeros
Model fingerprint: 0x44ac75cf
Variable types: 1988 continuous, 1622 integer (1200 binary)
Coefficient statistics:
  Matrix range     [7e-04, 7e+03]
  Objective range  [1e-08, 2e+00]
  Bounds range     [1e+00, 1e+00]
  RHS range        [9e-03, 1e+04]

User MIP start produced solution with objective 138.485 (0.01s)
Loaded user MIP start with objective 138.485

Presolve removed 3598 rows and 1787 columns
Presolve time: 0.06s
Presolved: 1804 rows, 1823 columns, 12379 nonzeros
Variable types: 789 continuous, 1034 integer (821 binary)

Root relaxation: objective 1.187661e+02, 1680 iterations, 0.04 seconds (0.08 work units)

    Nodes    |    Current Node    |     Objective Bounds      |     Work
 Expl Unexpl |  Obj  Depth IntInf | Incumbent    BestBd   Gap | It/Node Time

     0     0  118.76608    0  142  138.48478  118.76608  14.2%     -    0s
     0     0  118.80167    0  145  138.48478  118.80167  14.2%     -    0s
     0     0  118.80235    0  151  138.48478  118.80235  14.2%     -    0s
     0     0  118.80907    0  149  138.48478  118.80907  14.2%     -    0s
     0     0  118.81000    0  157  138.48478  118.81000  14.2%     -    0s
     0     0  118.81856    0  162  138.48478  118.81856  14.2%     -    0s
     0     0  118.81991    0  156  138.48478  118.81991  14.2%     -    0s
     0     0  118.82135    0  177  138.48478  118.82135  14.2%     -    0s
     0     0  118.82175    0  172  138.48478  118.82175  14.2%     -    0s
     0     0  118.82301    0  166  138.48478  118.82301  14.2%     -    0s
     0     0  118.82428    0  187  138.48478  118.82428  14.2%     -    0s
H    0     0                     119.3995209  118.82428  0.48%     -    0s
     0     0  118.82516    0  191  119.39952  118.82516  0.48%     -    0s
     0     0  118.82532    0  199  119.39952  118.82532  0.48%     -    0s
     0     0  118.83505    0  186  119.39952  118.83505  0.47%     -    0s
H    0     0                     119.2531235  118.83831  0.35%     -    0s
     0     0  118.83831    0  193  119.25312  118.83831  0.35%     -    0s
     0     0  118.84241    0  162  119.25312  118.84241  0.34%     -    0s
     0     0  118.84302    0  158  119.25312  118.84302  0.34%     -    0s
     0     0  118.84302    0  159  119.25312  118.84302  0.34%     -    0s
     0     0  118.84321    0  156  119.25312  118.84321  0.34%     -    0s
     0     0  118.84560    0  152  119.25312  118.84560  0.34%     -    0s
H    0     0                     119.0833993  118.84782  0.20%     -    0s
     0     0  118.84782    0  170  119.08340  118.84782  0.20%     -    0s
     0     0  118.84994    0  170  119.08340  118.84994  0.20%     -    0s
     0     0  118.84994    0  166  119.08340  118.84994  0.20%     -    0s
     0     0  118.84994    0  203  119.08340  118.84994  0.20%     -    0s
     0     0  118.84994    0  197  119.08340  118.84994  0.20%     -    0s
     0     0  118.85180    0  176  119.08340  118.85180  0.19%     -    0s
     0     0  118.85270    0  159  119.08340  118.85270  0.19%     -    0s
     0     0  118.88743    0  158  119.08340  118.88743  0.16%     -    0s
     0     0  118.88794    0  157  119.08340  118.88794  0.16%     -    0s
     0     0  118.90384    0  156  119.08340  118.90384  0.15%     -    0s
     0     0  118.90457    0  152  119.08340  118.90457  0.15%     -    0s
     0     0  118.90703    0  150  119.08340  118.90703  0.15%     -    0s
     0     0  118.90824    0  154  119.08340  118.90824  0.15%     -    0s
     0     0  118.91021    0  166  119.08340  118.91021  0.15%     -    0s
     0     0  118.91027    0  164  119.08340  118.91027  0.15%     -    0s
H    0     0                     119.0833732  118.91027  0.15%     -    0s
     0     0  118.91033    0  161  119.08337  118.91033  0.15%     -    0s
     0     0  118.91208    0  160  119.08337  118.91208  0.14%     -    0s
     0     0  118.91208    0  166  119.08337  118.91208  0.14%     -    0s
     0     0  118.91256    0  166  119.08337  118.91256  0.14%     -    0s
     0     2  118.91256    0  163  119.08337  118.91256  0.14%     -    0s
*  213    66              23     119.0833642  119.01288  0.06%  92.2    1s
*  293    74              35     119.0833546  119.02445  0.05%  90.4    1s
*  394    82              55     119.0833535  119.03779  0.04%  80.3    1s
*  539    29              34     119.0833534  119.06710  0.01%  74.3    1s
*  647     9              35     119.0833528  119.07574  0.01%  65.8    1s

Cutting planes:
  Learned: 1
  Gomory: 4
  Cover: 4
  Implied bound: 13
  Clique: 1
  MIR: 22
  StrongCG: 1
  Flow cover: 23
  Flow path: 27
  Inf proof: 2
  Zero half: 8
  Network: 1
  RLT: 4
  Relax-and-lift: 6

Explored 674 nodes (52421 simplex iterations) in 1.32 seconds (2.28 work units)
Thread count was 4 (of 24 available processors)

Solution count 10: 119.083 119.083 119.083 ... 138.485

Optimal solution found (tolerance 1.00e-05)
Best objective 1.190833527678e+02, best bound 1.190833526551e+02, gap 0.0000%

Gurobi 11.0.3 (linux64) logging started Tue Oct 15 11:48:24 2024

Set parameter LogFile to value "resources/logs/6_t1_r1_T2.0.log"
Gurobi Optimizer version 11.0.3 build v11.0.3rc0 (linux64 - "Ubuntu 22.04.4 LTS")

CPU model: 12th Gen Intel(R) Core(TM) i9-12900, instruction set [SSE2|AVX|AVX2]
Thread count: 12 physical cores, 24 logical processors, using up to 4 threads

Optimize a model with 5402 rows, 3610 columns and 36855 nonzeros
Model fingerprint: 0x44ac75cf
Variable types: 1988 continuous, 1622 integer (1200 binary)
Coefficient statistics:
  Matrix range     [7e-04, 7e+03]
  Objective range  [1e-08, 2e+00]
  Bounds range     [1e+00, 1e+00]
  RHS range        [9e-03, 1e+04]

User MIP start produced solution with objective 138.485 (0.01s)
Loaded user MIP start with objective 138.485

Presolve removed 3598 rows and 1787 columns
Presolve time: 0.06s
Presolved: 1804 rows, 1823 columns, 12379 nonzeros
Variable types: 789 continuous, 1034 integer (821 binary)

Root relaxation: objective 1.187661e+02, 1680 iterations, 0.04 seconds (0.08 work units)

    Nodes    |    Current Node    |     Objective Bounds      |     Work
 Expl Unexpl |  Obj  Depth IntInf | Incumbent    BestBd   Gap | It/Node Time

     0     0  118.76608    0  142  138.48478  118.76608  14.2%     -    0s
     0     0  118.80167    0  145  138.48478  118.80167  14.2%     -    0s
     0     0  118.80235    0  151  138.48478  118.80235  14.2%     -    0s
     0     0  118.80907    0  149  138.48478  118.80907  14.2%     -    0s
     0     0  118.81000    0  157  138.48478  118.81000  14.2%     -    0s
     0     0  118.81856    0  162  138.48478  118.81856  14.2%     -    0s
     0     0  118.81991    0  156  138.48478  118.81991  14.2%     -    0s
     0     0  118.82135    0  177  138.48478  118.82135  14.2%     -    0s
     0     0  118.82175    0  172  138.48478  118.82175  14.2%     -    0s
     0     0  118.82301    0  166  138.48478  118.82301  14.2%     -    0s
     0     0  118.82428    0  187  138.48478  118.82428  14.2%     -    0s
H    0     0                     119.3995209  118.82428  0.48%     -    0s
     0     0  118.82516    0  191  119.39952  118.82516  0.48%     -    0s
     0     0  118.82532    0  199  119.39952  118.82532  0.48%     -    0s
     0     0  118.83505    0  186  119.39952  118.83505  0.47%     -    0s
H    0     0                     119.2531235  118.83831  0.35%     -    0s
     0     0  118.83831    0  193  119.25312  118.83831  0.35%     -    0s
     0     0  118.84241    0  162  119.25312  118.84241  0.34%     -    0s
     0     0  118.84302    0  158  119.25312  118.84302  0.34%     -    0s
     0     0  118.84302    0  159  119.25312  118.84302  0.34%     -    0s
     0     0  118.84321    0  156  119.25312  118.84321  0.34%     -    0s
     0     0  118.84560    0  152  119.25312  118.84560  0.34%     -    0s
H    0     0                     119.0833993  118.84782  0.20%     -    0s
     0     0  118.84782    0  170  119.08340  118.84782  0.20%     -    0s
     0     0  118.84994    0  170  119.08340  118.84994  0.20%     -    0s
     0     0  118.84994    0  166  119.08340  118.84994  0.20%     -    0s
     0     0  118.84994    0  203  119.08340  118.84994  0.20%     -    0s
     0     0  118.84994    0  197  119.08340  118.84994  0.20%     -    0s
     0     0  118.85180    0  176  119.08340  118.85180  0.19%     -    0s
     0     0  118.85270    0  159  119.08340  118.85270  0.19%     -    0s
     0     0  118.88743    0  158  119.08340  118.88743  0.16%     -    0s
     0     0  118.88794    0  157  119.08340  118.88794  0.16%     -    0s
     0     0  118.90384    0  156  119.08340  118.90384  0.15%     -    0s
     0     0  118.90457    0  152  119.08340  118.90457  0.15%     -    0s
     0     0  118.90703    0  150  119.08340  118.90703  0.15%     -    0s
     0     0  118.90824    0  154  119.08340  118.90824  0.15%     -    0s
     0     0  118.91021    0  166  119.08340  118.91021  0.15%     -    0s
     0     0  118.91027    0  164  119.08340  118.91027  0.15%     -    0s
H    0     0                     119.0833732  118.91027  0.15%     -    0s
     0     0  118.91033    0  161  119.08337  118.91033  0.15%     -    0s
     0     0  118.91208    0  160  119.08337  118.91208  0.14%     -    0s
     0     0  118.91208    0  166  119.08337  118.91208  0.14%     -    0s
     0     0  118.91256    0  166  119.08337  118.91256  0.14%     -    0s
     0     2  118.91256    0  163  119.08337  118.91256  0.14%     -    0s
*  213    66              23     119.0833642  119.01288  0.06%  92.2    1s
*  293    74              35     119.0833546  119.02445  0.05%  90.4    1s
*  394    82              55     119.0833535  119.03779  0.04%  80.3    1s
*  539    29              34     119.0833534  119.06710  0.01%  74.3    1s
*  647     9              35     119.0833528  119.07574  0.01%  65.8    1s

Cutting planes:
  Learned: 1
  Gomory: 4
  Cover: 4
  Implied bound: 13
  Clique: 1
  MIR: 22
  StrongCG: 1
  Flow cover: 23
  Flow path: 27
  Inf proof: 2
  Zero half: 8
  Network: 1
  RLT: 4
  Relax-and-lift: 6

Explored 674 nodes (52421 simplex iterations) in 1.30 seconds (2.28 work units)
Thread count was 4 (of 24 available processors)

Solution count 10: 119.083 119.083 119.083 ... 138.485

Optimal solution found (tolerance 1.00e-05)
Best objective 1.190833527678e+02, best bound 1.190833526551e+02, gap 0.0000%
